
Value of objective function: 1779.48

Actual values of the variables:
tF1                  3.93171
tF2                  3.91573
tF3                  4.30171
tF4                  3.56171
tF5                  3.19171
tF6                  3.56171
tF7                  3.49391
ta'                  2.58757
tb'                  2.69173
tc'                  3.29395
td'                  2.19992
Sint13'              1.02657
SF1                  1
SF2                  1.5309
SF3                  1
SF4                  1
SF5                  1
SF6                  1
SF7                  3
TF1                  9.73029
TF2                  9.73029
TF3                  9.73029
TF4                  9.36028
TF5                  8.99029
TF6                  9.36028
TF7                  9.73029
Sa'                  1.6322
Sb'                  1.83989
Sc'                  1
Sd'                  3
Ta'                  2.58757
Tb'                  2.69173
Tc'                  3.29395
Td'                  2.19992
Tsub4                2.36685
Tsub1'               5.81456
Tsub2'               5.42858
Tsub3'               6.23638
Tsub4'               4.8163
tsub1'               3.22699
tsub2'               2.73685
tsub3'               3.64881
tsub4'               2.44945
Tint13               2.58757
tint13               2.58757
Ssub1'               1
Ssub2'               1
Ssub3'               3
Ssub4'               1
Tint13'              5.79858
tint13'              3.21101
Ssub4                1
Sint13               3
tsub4                2.36685
T_max                9.73029

Actual values of the constraints:
r_1                  0
r_2                  3.22866
r_3                  3.59866
r_4                  4.03646
r_5                  0.387649
r_6                  0.387649
r_7                  7.92667
r_8                  4.2178
r_9                  3.07849
r_10                 0
r_11                 2.13463
r_12                 2.50463
r_13                 2.94243
r_14                 3.75259
r_15                 3.24804
r_16                 3.13374
r_17                 0
r_18                 3.12282
r_19                 3.10684
r_20                 3.54464
r_21                 0
r_22                 5.25912
r_23                 3.47534
r_24                 2.95112
r_25                 0
r_26                 3.21101
r_27                 3.21101
r_28                 0.104167
r_29                 0
r_30                 4.46033
r_31                 3.09922
r_32                 2.71017
r_33                 1.42008
r_34                 2.58243
r_35                 2.36096
r_36                 2.31947
r_37                 0
r_38                 0
r_39                 2.95243
r_40                 2.56932
r_41                 2.45239
r_42                 0
r_43                 5.40556
r_44                 4.25622
r_45                 3.90544
r_46                 0
r_47                 3.32243
r_48                 2.93932
r_49                 2.82239
r_50                 0
r_51                 3.69243
r_52                 3.35223
r_53                 3.25532
r_54                 0
r_55                 0
r_56                 0
r_57                 0
r_58                 4.33767
r_59                 3.49989
r_60                 3.26373
r_61                 0
r_62                 3.21101
r_63                 3.21101
r_64                 0
r_65                 0
r_66                 0.104167
r_67                 0
r_68                 10.3602
r_69                 5.52946
r_70                 4.00571
r_71                 0
r_72                 5.67498
r_73                 4.42865
r_74                 4.01321
r_75                 0.370001
r_76                 4.28873
r_77                 3.87329
r_78                 3.73481
r_79                 0.74
r_80                 3.91873
r_81                 3.50329
r_82                 3.36481
r_83                 0.370001
r_84                 4.28873
r_85                 3.87329
r_86                 3.73481
r_87                 0
r_88                 5.02873
r_89                 4.61329
r_90                 4.47481
r_91                 0
r_92                 5.02873
r_93                 4.39273
r_94                 4.18073
r_95                 0
r_96                 4.65873
r_97                 4.24329
r_98                 4.10481
